solution status: optimal solution found
objective value:                                    0
thingy.ctrl_collect_hole_y                         23 	(obj:0)
thingy.ctrl_collect_hole_z                         20 	(obj:0)
$_14__1_y                                          24 	(obj:0)
$_14__1_z                                          22 	(obj:0)
thingy.collect_pinholes[3].hole_y                   20 	(obj:0)
thingy.collect_pinholes[3].hole_z                   20 	(obj:0)
thingy.collect_pinholes[1].hole_y                   19 	(obj:0)
thingy.collect_pinholes[1].hole_z                   20 	(obj:0)
thingy.flush_collect_hole_y                        24 	(obj:0)
thingy.flush_collect_hole_z                        20 	(obj:0)
thingy.collect_pinholes[0].hole_y                   23 	(obj:0)
thingy.collect_pinholes[0].hole_z                   24 	(obj:0)
thingy.collect_pinholes[2].hole_y                   20 	(obj:0)
thingy.collect_pinholes[2].hole_z                   21 	(obj:0)
$_11__1_y                                          24 	(obj:0)
$_11__1_z                                          23 	(obj:0)
$_12__1_y                                          24 	(obj:0)
$_12__1_z                                          24 	(obj:0)
$_16__1_y                                          21 	(obj:0)
$_16__1_z                                          24 	(obj:0)
$_13__1_y                                          24 	(obj:0)
$_13__1_z                                           9 	(obj:0)
$_15__1_y                                          22 	(obj:0)
$_15__1_z                                           9 	(obj:0)
